
Gurobi 10.0.1 (win64) logging started Wed May  3 13:17:36 2023

Set parameter LogFile to value "C:\Users\tim87\Desktop\cornell\spring23\Discrete Optimization\final\Capacity-expansion-in-the-college-admission-problem\Experiments_n1=100\m.facility_loc_st100un7fund-1.gurobi-log.txt"
Gurobi Optimizer version 10.0.1 build v10.0.1rc0 (win64)

CPU model: 11th Gen Intel(R) Core(TM) i7-1180G7 @ 1.30GHz, instruction set [SSE2|AVX|AVX2|AVX512]
Thread count: 4 physical cores, 8 logical processors, using up to 1 threads

Optimize a model with 108 rows, 707 columns and 1414 nonzeros
Model fingerprint: 0x6c1eff17
Coefficient statistics:
  Matrix range     [1e+00, 1e+00]
  Objective range  [1e+00, 6e+00]
  Bounds range     [1e+00, 1e+00]
  RHS range        [1e+00, 2e+01]
Iteration    Objective       Primal Inf.    Dual Inf.      Time
       0    0.0000000e+00   1.400000e+01   0.000000e+00      0s

Solved in 16 iterations and 0.00 seconds (0.00 work units)
Infeasible model

Statistics for modelfacility_loc:
  Linear constraint matrix    : 108 Constrs, 707 Vars, 1414 NZs
  Matrix coefficient range    : [ 1, 1 ]
  Objective coefficient range : [ 1, 6 ]
  Variable bound range        : [ 1, 1 ]
  RHS coefficient range       : [ 1, 21 ]

IIS computed: 108 constraints and 0 bounds
IIS runtime: 0.00 seconds (0.00 work units)

Gurobi 10.0.1 (win64) logging started Wed May  3 13:29:27 2023

Set parameter LogFile to value "C:\Users\tim87\Desktop\cornell\spring23\Discrete Optimization\final\Capacity-expansion-in-the-college-admission-problem\Experiments_n1=100\m.facility_loc_st100un7fund-1.gurobi-log.txt"
Gurobi Optimizer version 10.0.1 build v10.0.1rc0 (win64)

CPU model: 11th Gen Intel(R) Core(TM) i7-1180G7 @ 1.30GHz, instruction set [SSE2|AVX|AVX2|AVX512]
Thread count: 4 physical cores, 8 logical processors, using up to 1 threads

Optimize a model with 108 rows, 707 columns and 1414 nonzeros
Model fingerprint: 0xd1c1ef04
Coefficient statistics:
  Matrix range     [1e+00, 1e+00]
  Objective range  [1e+00, 6e+00]
  Bounds range     [1e+00, 1e+00]
  RHS range        [1e+00, 2e+01]
Iteration    Objective       Primal Inf.    Dual Inf.      Time
       0    0.0000000e+00   9.000000e+00   0.000000e+00      0s
      14    7.0000000e+00   0.000000e+00   0.000000e+00      0s

Solved in 14 iterations and 0.00 seconds (0.00 work units)
Optimal objective  7.000000000e+00

Statistics for modelfacility_loc:
  Linear constraint matrix    : 108 Constrs, 707 Vars, 1414 NZs
  Matrix coefficient range    : [ 1, 1 ]
  Objective coefficient range : [ 1, 6 ]
  Variable bound range        : [ 1, 1 ]
  RHS coefficient range       : [ 1, 19 ]
IIS runtime: 0.00 seconds (0.00 work units)

Gurobi 10.0.1 (win64) logging started Wed May  3 13:30:11 2023

Set parameter LogFile to value "C:\Users\tim87\Desktop\cornell\spring23\Discrete Optimization\final\Capacity-expansion-in-the-college-admission-problem\Experiments_n1=100\m.facility_loc_st100un7fund-1.gurobi-log.txt"
Gurobi Optimizer version 10.0.1 build v10.0.1rc0 (win64)

CPU model: 11th Gen Intel(R) Core(TM) i7-1180G7 @ 1.30GHz, instruction set [SSE2|AVX|AVX2|AVX512]
Thread count: 4 physical cores, 8 logical processors, using up to 1 threads

Optimize a model with 108 rows, 707 columns and 1414 nonzeros
Model fingerprint: 0xc99cb0cb
Coefficient statistics:
  Matrix range     [1e+00, 1e+00]
  Objective range  [1e+00, 6e+00]
  Bounds range     [1e+00, 1e+00]
  RHS range        [1e+00, 2e+01]
Iteration    Objective       Primal Inf.    Dual Inf.      Time
       0    0.0000000e+00   1.700000e+01   0.000000e+00      0s
      19    1.3000000e+01   0.000000e+00   0.000000e+00      0s

Solved in 19 iterations and 0.01 seconds (0.00 work units)
Optimal objective  1.300000000e+01

Statistics for modelfacility_loc:
  Linear constraint matrix    : 108 Constrs, 707 Vars, 1414 NZs
  Matrix coefficient range    : [ 1, 1 ]
  Objective coefficient range : [ 1, 6 ]
  Variable bound range        : [ 1, 1 ]
  RHS coefficient range       : [ 1, 21 ]
Runtime: 0.006000041961669922
